# Solution for model problem
# Objective value = 3.0300000000000005e-05
CLIENT_PE0_0 0
CLIENT_PE2_0 0
CLIENT_PE3_0 0
CLIENT_PE4_0 0
CLIENT_PE6_0 0
CLIENT_PE7_0 0
CLIENT_PE13_0 1
CLIENT_PE14_0 0
CLIENT_PE0_4 0
CLIENT_PE1_4 0
CLIENT_PE2_4 0
CLIENT_PE3_4 0
CLIENT_PE4_4 0
CLIENT_PE5_4 0
CLIENT_PE6_4 0
CLIENT_PE7_4 0
CLIENT_PE8_4 0
CLIENT_PE9_4 0
CLIENT_PE10_4 0
CLIENT_PE11_4 0
CLIENT_PE12_4 0
CLIENT_PE13_4 0
CLIENT_PE14_4 0
CLIENT_PE15_4 1
CLIENT_PE16_4 0
